p cnf 88 79
-1 72 -73 0 
-2 73 0 
-3 7 27 47 73 0 
-4 -5 73 0 
-6 74 0 
-7 3 27 47 73 0 
-8 69 73 0 
-9 40 41 52 71 73 0 
-10 13 38 73 0 
-11 73 0 
-12 -13 10 38 73 0 
-14 26 73 0 
-15 73 0 
-16 73 0 
-17 -13 10 38 73 0 
-18 21 73 0 
-19 73 0 
-20 73 0 
-21 18 73 0 
-22 73 0 
-23 57 62 73 0 
-24 70 73 0 
-9 40 41 52 71 73 0 
-25 73 0 
-26 14 -27 3 7 47 -28 75 -73 0 
-29 -30 73 0 
-31 73 0 
-32 73 0 
-33 -16 73 0 
-34 76 -73 0 
-35 73 0 
-36 -37 73 0 
-38 10 13 73 0 
-39 73 0 
-40 9 41 52 71 73 0 
-8 69 -29 73 0 
-41 9 40 52 71 73 0 
-42 73 0 
-43 73 0 
-44 -45 77 -73 0 
-46 73 0 
-47 3 7 27 77 -73 0 
-48 59 78 -73 0 
-49 -50 77 -73 0 
-6 -51 73 0 
-52 9 40 41 71 73 0 
-9 40 41 52 71 73 0 
-53 72 -73 0 
-54 79 -73 0 
-55 80 -73 0 
-56 81 -73 0 
-56 82 -73 0 
-55 83 -73 0 
-57 23 62 -22 84 -73 0 
-58 84 -73 0 
-59 48 73 0 
-29 73 0 
-60 68 -35 -7 3 27 47 -61 73 0 
-60 68 -14 26 -15 73 0 
-56 83 -73 0 
-55 -62 23 57 77 -73 0 
-55 85 -73 0 
-56 73 0 
-55 -62 23 57 80 -73 0 
-13 10 38 73 0 
-63 73 0 
-64 73 0 
-65 73 0 
-66 86 -55 -73 0 
-67 73 0 
-68 60 -69 8 73 0 
-70 24 87 -73 0 
-70 24 78 -73 0 
-18 21 88 -73 0 
-23 57 62 81 -73 0 
-19 81 -73 0 
-18 21 81 -73 0 
-19 88 -73 0 
-71 9 40 41 52 73 0 
